\* NoName *\
Minimize
OBJ: x_(0,_1) + x_(0,_6) + x_(0,_7) + x_(1,_2) + x_(1,_7) + x_(10,_11)
 + x_(2,_3) + x_(2,_8) + x_(3,_4) + x_(3,_9) + x_(4,_5) + x_(4,_9) + x_(5,_10)
 + x_(5,_6) + x_(6,_10) + x_(7,_11) + x_(8,_11) + x_(8,_9)
Subject To
_C1: f^9_0,1 + f^9_0,6 + f^9_0,7 - f^9_1,0 - f^9_6,0 - f^9_7,0 = 0
_C10: - f^9_3,9 - f^9_4,9 - f^9_8,9 + f^9_9,3 + f^9_9,4 + f^9_9,8 = -1
_C11: f^9_10,11 + f^9_10,5 + f^9_10,6 - f^9_11,10 - f^9_5,10 - f^9_6,10 = 0
_C12: - f^9_10,11 + f^9_11,10 + f^9_11,7 + f^9_11,8 - f^9_7,11 - f^9_8,11 = 0
_C13: - f^9_0,1 - f^9_1,0 + x_(0,_1) >= 0
_C14: - f^9_0,6 - f^9_6,0 + x_(0,_6) >= 0
_C15: - f^9_0,7 - f^9_7,0 + x_(0,_7) >= 0
_C16: - f^9_1,2 - f^9_2,1 + x_(1,_2) >= 0
_C17: - f^9_1,7 - f^9_7,1 + x_(1,_7) >= 0
_C18: - f^9_2,3 - f^9_3,2 + x_(2,_3) >= 0
_C19: - f^9_2,8 - f^9_8,2 + x_(2,_8) >= 0
_C2: - f^9_0,1 + f^9_1,0 + f^9_1,2 + f^9_1,7 - f^9_2,1 - f^9_7,1 = 0
_C20: - f^9_3,4 - f^9_4,3 + x_(3,_4) >= 0
_C21: - f^9_3,9 - f^9_9,3 + x_(3,_9) >= 0
_C22: - f^9_4,5 - f^9_5,4 + x_(4,_5) >= 0
_C23: - f^9_4,9 - f^9_9,4 + x_(4,_9) >= 0
_C24: - f^9_5,6 - f^9_6,5 + x_(5,_6) >= 0
_C25: - f^9_10,5 - f^9_5,10 + x_(5,_10) >= 0
_C26: - f^9_10,6 - f^9_6,10 + x_(6,_10) >= 0
_C27: - f^9_11,7 - f^9_7,11 + x_(7,_11) >= 0
_C28: - f^9_11,8 - f^9_8,11 + x_(8,_11) >= 0
_C29: - f^9_8,9 - f^9_9,8 + x_(8,_9) >= 0
_C3: - f^9_1,2 + f^9_2,1 + f^9_2,3 + f^9_2,8 - f^9_3,2 - f^9_8,2 = 0
_C30: - f^9_10,11 - f^9_11,10 + x_(10,_11) >= 0
_C31: f^5_0,1 + f^5_0,6 + f^5_0,7 - f^5_1,0 - f^5_6,0 - f^5_7,0 = 0
_C32: - f^5_0,1 + f^5_1,0 + f^5_1,2 + f^5_1,7 - f^5_2,1 - f^5_7,1 = 0
_C33: - f^5_1,2 + f^5_2,1 + f^5_2,3 + f^5_2,8 - f^5_3,2 - f^5_8,2 = 0
_C34: - f^5_2,3 + f^5_3,2 + f^5_3,4 + f^5_3,9 - f^5_4,3 - f^5_9,3 = 0
_C35: - f^5_3,4 + f^5_4,3 + f^5_4,5 + f^5_4,9 - f^5_5,4 - f^5_9,4 = 0
_C36: - f^5_10,5 - f^5_4,5 + f^5_5,10 + f^5_5,4 + f^5_5,6 - f^5_6,5 = -1
_C37: - f^5_0,6 - f^5_10,6 - f^5_5,6 + f^5_6,0 + f^5_6,10 + f^5_6,5 = 0
_C38: - f^5_0,7 - f^5_1,7 - f^5_11,7 + f^5_7,0 + f^5_7,1 + f^5_7,11 = 1
_C39: - f^5_11,8 - f^5_2,8 + f^5_8,11 + f^5_8,2 + f^5_8,9 - f^5_9,8 = 0
_C4: - f^9_2,3 + f^9_3,2 + f^9_3,4 + f^9_3,9 - f^9_4,3 - f^9_9,3 = 0
_C40: - f^5_3,9 - f^5_4,9 - f^5_8,9 + f^5_9,3 + f^5_9,4 + f^5_9,8 = 0
_C41: f^5_10,11 + f^5_10,5 + f^5_10,6 - f^5_11,10 - f^5_5,10 - f^5_6,10 = 0
_C42: - f^5_10,11 + f^5_11,10 + f^5_11,7 + f^5_11,8 - f^5_7,11 - f^5_8,11 = 0
_C43: - f^5_0,1 - f^5_1,0 + x_(0,_1) >= 0
_C44: - f^5_0,6 - f^5_6,0 + x_(0,_6) >= 0
_C45: - f^5_0,7 - f^5_7,0 + x_(0,_7) >= 0
_C46: - f^5_1,2 - f^5_2,1 + x_(1,_2) >= 0
_C47: - f^5_1,7 - f^5_7,1 + x_(1,_7) >= 0
_C48: - f^5_2,3 - f^5_3,2 + x_(2,_3) >= 0
_C49: - f^5_2,8 - f^5_8,2 + x_(2,_8) >= 0
_C5: - f^9_3,4 + f^9_4,3 + f^9_4,5 + f^9_4,9 - f^9_5,4 - f^9_9,4 = 0
_C50: - f^5_3,4 - f^5_4,3 + x_(3,_4) >= 0
_C51: - f^5_3,9 - f^5_9,3 + x_(3,_9) >= 0
_C52: - f^5_4,5 - f^5_5,4 + x_(4,_5) >= 0
_C53: - f^5_4,9 - f^5_9,4 + x_(4,_9) >= 0
_C54: - f^5_5,6 - f^5_6,5 + x_(5,_6) >= 0
_C55: - f^5_10,5 - f^5_5,10 + x_(5,_10) >= 0
_C56: - f^5_10,6 - f^5_6,10 + x_(6,_10) >= 0
_C57: - f^5_11,7 - f^5_7,11 + x_(7,_11) >= 0
_C58: - f^5_11,8 - f^5_8,11 + x_(8,_11) >= 0
_C59: - f^5_8,9 - f^5_9,8 + x_(8,_9) >= 0
_C6: - f^9_10,5 - f^9_4,5 + f^9_5,10 + f^9_5,4 + f^9_5,6 - f^9_6,5 = 0
_C60: - f^5_10,11 - f^5_11,10 + x_(10,_11) >= 0
_C7: - f^9_0,6 - f^9_10,6 - f^9_5,6 + f^9_6,0 + f^9_6,10 + f^9_6,5 = 0
_C8: - f^9_0,7 - f^9_1,7 - f^9_11,7 + f^9_7,0 + f^9_7,1 + f^9_7,11 = 1
_C9: - f^9_11,8 - f^9_2,8 + f^9_8,11 + f^9_8,2 + f^9_8,9 - f^9_9,8 = 0
Binaries
f^5_0,1
f^5_0,6
f^5_0,7
f^5_1,0
f^5_1,2
f^5_1,7
f^5_10,11
f^5_10,5
f^5_10,6
f^5_11,10
f^5_11,7
f^5_11,8
f^5_2,1
f^5_2,3
f^5_2,8
f^5_3,2
f^5_3,4
f^5_3,9
f^5_4,3
f^5_4,5
f^5_4,9
f^5_5,10
f^5_5,4
f^5_5,6
f^5_6,0
f^5_6,10
f^5_6,5
f^5_7,0
f^5_7,1
f^5_7,11
f^5_8,11
f^5_8,2
f^5_8,9
f^5_9,3
f^5_9,4
f^5_9,8
f^9_0,1
f^9_0,6
f^9_0,7
f^9_1,0
f^9_1,2
f^9_1,7
f^9_10,11
f^9_10,5
f^9_10,6
f^9_11,10
f^9_11,7
f^9_11,8
f^9_2,1
f^9_2,3
f^9_2,8
f^9_3,2
f^9_3,4
f^9_3,9
f^9_4,3
f^9_4,5
f^9_4,9
f^9_5,10
f^9_5,4
f^9_5,6
f^9_6,0
f^9_6,10
f^9_6,5
f^9_7,0
f^9_7,1
f^9_7,11
f^9_8,11
f^9_8,2
f^9_8,9
f^9_9,3
f^9_9,4
f^9_9,8
x_(0,_1)
x_(0,_6)
x_(0,_7)
x_(1,_2)
x_(1,_7)
x_(10,_11)
x_(2,_3)
x_(2,_8)
x_(3,_4)
x_(3,_9)
x_(4,_5)
x_(4,_9)
x_(5,_10)
x_(5,_6)
x_(6,_10)
x_(7,_11)
x_(8,_11)
x_(8,_9)
End
